Test: battleship-05-08-unsat.cnf
Options: -no-inverting-opt -sym-usage-var-bump
WARNING: for repeatability, setting FPU to use double precision
============================[ Problem Statistics ]=============================
|                                                                             |
|  Number of symmetries:            8                                         |
|  Number of invertingSyms:         0                                         |
|  Number of variables:            40                                         |
|  Number of clauses:             105                                         |
|  Parse time:                   0.00 s                                       |
|                                                                             |
============================[ Search Statistics ]==============================
| Conflicts |          ORIGINAL         |          LEARNT          | Progress |
|           |    Vars  Clauses Literals |    Limit  Clauses Lit/Cl |          |
===============================================================================
|       100 |      40      105      360 |       38       28     13 |  0.064 % |
|       250 |      40      105      360 |       42       53     13 |  0.064 % |
===============================================================================
restarts              : 3
conflicts             : 301            (75250 /sec)
symconflicts          : 24             (6000 /sec)
decisions             : 366            (0.00 % random) (91500 /sec)
propagations          : 3222           (805500 /sec)
sympropagations       : 78             (19500 /sec)
conflict literals     : 4134           (5.16 % deleted)
literals     : 4134           (5.16 % deleted)

HEURISTIC USAGES
random                : 0           
activity w/ lookahead : 0           
activity no lookahead : 0           
original sp           : 366         
sym count             : 0           

Memory used           : 5.00 MB
CPU time              : 0.004 s

UNSATISFIABLE
